p edge 300 1440
e 1 2 1
e 1 300 1
e 1 3 1
e 1 299 1
e 1 4 1
e 1 298 1
e 1 197 1
e 1 284 1
e 1 119 1
e 1 267 1
e 1 36 1
e 1 41 1
e 1 52 1
e 2 3 1
e 2 4 1
e 2 300 1
e 2 5 1
e 2 299 1
e 2 191 1
e 2 43 1
e 3 4 1
e 3 5 1
e 3 6 1
e 3 300 1
e 3 90 1
e 3 55 1
e 3 18 1
e 3 68 1
e 3 180 1
e 4 5 1
e 4 6 1
e 4 7 1
e 4 31 1
e 4 79 1
e 4 36 1
e 4 23 1
e 5 6 1
e 5 7 1
e 5 8 1
e 5 300 1
e 5 99 1
e 5 86 1
e 5 199 1
e 6 7 1
e 6 8 1
e 6 9 1
e 6 254 1
e 6 16 1
e 6 287 1
e 7 8 1
e 7 9 1
e 7 10 1
e 7 157 1
e 7 102 1
e 8 9 1
e 8 10 1
e 8 11 1
e 8 15 1
e 8 39 1
e 8 46 1
e 8 224 1
e 9 10 1
e 9 11 1
e 9 12 1
e 9 235 1
e 9 167 1
e 10 11 1
e 10 12 1
e 10 13 1
e 10 231 1
e 10 96 1
e 10 166 1
e 10 241 1
e 11 12 1
e 11 13 1
e 11 14 1
e 11 206 1
e 12 13 1
e 12 14 1
e 12 15 1
e 12 253 1
e 12 105 1
e 13 14 1
e 13 15 1
e 13 16 1
e 13 277 1
e 13 45 1
e 13 55 1
e 13 81 1
e 14 15 1
e 14 16 1
e 14 17 1
e 14 100 1
e 14 289 1
e 14 57 1
e 15 16 1
e 15 17 1
e 15 18 1
e 15 22 1
e 15 57 1
e 15 269 1
e 15 63 1
e 15 66 1
e 15 78 1
e 15 168 1
e 16 17 1
e 16 18 1
e 16 19 1
e 16 122 1
e 16 71 1
e 16 242 1
e 17 18 1
e 17 19 1
e 17 20 1
e 17 178 1
e 17 38 1
e 17 77 1
e 17 104 1
e 17 200 1
e 17 298 1
e 18 19 1
e 18 20 1
e 18 21 1
e 18 107 1
e 18 287 1
e 19 20 1
e 19 21 1
e 19 22 1
e 19 49 1
e 19 281 1
e 19 217 1
e 19 263 1
e 20 21 1
e 20 22 1
e 20 23 1
e 20 271 1
e 21 22 1
e 21 23 1
e 21 24 1
e 21 234 1
e 21 32 1
e 22 23 1
e 22 24 1
e 22 25 1
e 22 248 1
e 22 207 1
e 22 31 1
e 22 43 1
e 22 258 1
e 22 270 1
e 22 286 1
e 23 24 1
e 23 25 1
e 23 26 1
e 23 99 1
e 23 254 1
e 23 62 1
e 23 282 1
e 24 25 1
e 24 26 1
e 24 27 1
e 24 244 1
e 24 139 1
e 24 33 1
e 24 149 1
e 24 192 1
e 25 26 1
e 25 27 1
e 25 28 1
e 25 73 1
e 25 72 1
e 26 27 1
e 26 28 1
e 26 29 1
e 26 206 1
e 27 28 1
e 27 29 1
e 27 30 1
e 27 249 1
e 27 199 1
e 28 29 1
e 28 30 1
e 28 31 1
e 28 167 1
e 28 213 1
e 28 227 1
e 28 114 1
e 29 30 1
e 29 31 1
e 29 32 1
e 29 214 1
e 29 240 1
e 29 71 1
e 30 31 1
e 30 32 1
e 30 33 1
e 30 108 1
e 30 267 1
e 30 71 1
e 30 148 1
e 30 266 1
e 31 32 1
e 31 33 1
e 31 34 1
e 31 73 1
e 31 41 1
e 31 205 1
e 32 33 1
e 32 34 1
e 32 35 1
e 32 214 1
e 32 242 1
e 32 226 1
e 33 34 1
e 33 35 1
e 33 36 1
e 33 80 1
e 34 35 1
e 34 36 1
e 34 37 1
e 34 88 1
e 34 150 1
e 34 215 1
e 35 36 1
e 35 37 1
e 35 38 1
e 35 174 1
e 35 288 1
e 36 37 1
e 36 38 1
e 36 39 1
e 36 46 1
e 36 173 1
e 37 38 1
e 37 39 1
e 37 40 1
e 37 170 1
e 37 113 1
e 37 160 1
e 37 194 1
e 38 39 1
e 38 40 1
e 38 41 1
e 38 169 1
e 38 85 1
e 39 40 1
e 39 41 1
e 39 42 1
e 39 87 1
e 39 168 1
e 39 83 1
e 39 234 1
e 40 41 1
e 40 42 1
e 40 43 1
e 40 71 1
e 40 193 1
e 40 206 1
e 41 42 1
e 41 43 1
e 41 44 1
e 41 113 1
e 41 202 1
e 41 273 1
e 42 43 1
e 42 44 1
e 42 45 1
e 42 254 1
e 43 44 1
e 43 45 1
e 43 46 1
e 43 146 1
e 43 176 1
e 44 45 1
e 44 46 1
e 44 47 1
e 44 93 1
e 44 112 1
e 45 46 1
e 45 47 1
e 45 48 1
e 45 90 1
e 45 175 1
e 45 130 1
e 46 47 1
e 46 48 1
e 46 49 1
e 46 70 1
e 46 229 1
e 46 220 1
e 46 263 1
e 47 48 1
e 47 49 1
e 47 50 1
e 47 283 1
e 47 51 1
e 47 186 1
e 47 223 1
e 48 49 1
e 48 50 1
e 48 51 1
e 48 249 1
e 48 264 1
e 48 146 1
e 49 50 1
e 49 51 1
e 49 52 1
e 49 286 1
e 49 283 1
e 50 51 1
e 50 52 1
e 50 53 1
e 50 265 1
e 50 186 1
e 50 199 1
e 50 146 1
e 50 220 1
e 51 52 1
e 51 53 1
e 51 54 1
e 51 104 1
e 51 74 1
e 51 284 1
e 52 53 1
e 52 54 1
e 52 55 1
e 52 264 1
e 52 147 1
e 53 54 1
e 53 55 1
e 53 56 1
e 53 194 1
e 53 179 1
e 53 113 1
e 54 55 1
e 54 56 1
e 54 57 1
e 54 63 1
e 54 88 1
e 54 163 1
e 54 178 1
e 55 56 1
e 55 57 1
e 55 58 1
e 55 240 1
e 55 110 1
e 55 134 1
e 56 57 1
e 56 58 1
e 56 59 1
e 56 293 1
e 56 102 1
e 57 58 1
e 57 59 1
e 57 60 1
e 57 142 1
e 57 171 1
e 58 59 1
e 58 60 1
e 58 61 1
e 58 111 1
e 58 105 1
e 58 178 1
e 58 245 1
e 59 60 1
e 59 61 1
e 59 62 1
e 59 177 1
e 59 128 1
e 60 61 1
e 60 62 1
e 60 63 1
e 60 227 1
e 60 111 1
e 60 269 1
e 60 221 1
e 61 62 1
e 61 63 1
e 61 64 1
e 61 146 1
e 61 236 1
e 61 198 1
e 61 224 1
e 61 276 1
e 62 63 1
e 62 64 1
e 62 65 1
e 62 144 1
e 62 234 1
e 62 93 1
e 62 290 1
e 63 64 1
e 63 65 1
e 63 66 1
e 63 217 1
e 63 77 1
e 64 65 1
e 64 66 1
e 64 67 1
e 64 189 1
e 65 66 1
e 65 67 1
e 65 68 1
e 65 72 1
e 66 67 1
e 66 68 1
e 66 69 1
e 66 123 1
e 66 136 1
e 66 196 1
e 67 68 1
e 67 69 1
e 67 70 1
e 67 274 1
e 67 153 1
e 67 196 1
e 67 203 1
e 68 69 1
e 68 70 1
e 68 71 1
e 68 239 1
e 69 70 1
e 69 71 1
e 69 72 1
e 69 287 1
e 69 225 1
e 69 205 1
e 69 110 1
e 69 146 1
e 69 187 1
e 70 71 1
e 70 72 1
e 70 73 1
e 70 170 1
e 70 241 1
e 70 194 1
e 71 72 1
e 71 73 1
e 71 74 1
e 71 107 1
e 72 73 1
e 72 74 1
e 72 75 1
e 72 266 1
e 72 151 1
e 72 169 1
e 73 74 1
e 73 75 1
e 73 76 1
e 73 184 1
e 73 276 1
e 73 101 1
e 74 75 1
e 74 76 1
e 74 77 1
e 74 185 1
e 74 281 1
e 75 76 1
e 75 77 1
e 75 78 1
e 75 190 1
e 75 115 1
e 75 259 1
e 75 282 1
e 76 77 1
e 76 78 1
e 76 79 1
e 76 163 1
e 76 185 1
e 76 102 1
e 76 172 1
e 76 183 1
e 76 192 1
e 76 274 1
e 77 78 1
e 77 79 1
e 77 80 1
e 77 159 1
e 78 79 1
e 78 80 1
e 78 81 1
e 78 85 1
e 78 172 1
e 79 80 1
e 79 81 1
e 79 82 1
e 79 235 1
e 79 248 1
e 79 121 1
e 79 138 1
e 79 174 1
e 80 81 1
e 80 82 1
e 80 83 1
e 80 121 1
e 80 169 1
e 81 82 1
e 81 83 1
e 81 84 1
e 81 280 1
e 81 235 1
e 81 271 1
e 82 83 1
e 82 84 1
e 82 85 1
e 82 268 1
e 82 116 1
e 82 124 1
e 82 95 1
e 82 252 1
e 83 84 1
e 83 85 1
e 83 86 1
e 83 191 1
e 83 125 1
e 83 198 1
e 83 217 1
e 83 267 1
e 84 85 1
e 84 86 1
e 84 87 1
e 85 86 1
e 85 87 1
e 85 88 1
e 85 100 1
e 85 136 1
e 86 87 1
e 86 88 1
e 86 89 1
e 86 251 1
e 86 285 1
e 87 88 1
e 87 89 1
e 87 90 1
e 87 211 1
e 87 222 1
e 88 89 1
e 88 90 1
e 88 91 1
e 88 109 1
e 88 99 1
e 89 90 1
e 89 91 1
e 89 92 1
e 89 199 1
e 89 204 1
e 90 91 1
e 90 92 1
e 90 93 1
e 90 119 1
e 91 92 1
e 91 93 1
e 91 94 1
e 91 156 1
e 91 151 1
e 92 93 1
e 92 94 1
e 92 95 1
e 92 257 1
e 92 285 1
e 92 283 1
e 93 94 1
e 93 95 1
e 93 96 1
e 93 181 1
e 93 184 1
e 93 250 1
e 93 264 1
e 94 95 1
e 94 96 1
e 94 97 1
e 94 122 1
e 94 166 1
e 94 137 1
e 95 96 1
e 95 97 1
e 95 98 1
e 95 114 1
e 95 189 1
e 95 256 1
e 95 270 1
e 96 97 1
e 96 98 1
e 96 99 1
e 96 233 1
e 96 110 1
e 97 98 1
e 97 99 1
e 97 100 1
e 97 242 1
e 97 266 1
e 97 292 1
e 98 99 1
e 98 100 1
e 98 101 1
e 98 153 1
e 99 100 1
e 99 101 1
e 99 102 1
e 99 283 1
e 99 128 1
e 99 135 1
e 100 101 1
e 100 102 1
e 100 103 1
e 100 255 1
e 101 102 1
e 101 103 1
e 101 104 1
e 101 158 1
e 101 259 1
e 102 103 1
e 102 104 1
e 102 105 1
e 102 205 1
e 102 108 1
e 103 104 1
e 103 105 1
e 103 106 1
e 103 203 1
e 103 120 1
e 103 146 1
e 104 105 1
e 104 106 1
e 104 107 1
e 104 183 1
e 104 131 1
e 105 106 1
e 105 107 1
e 105 108 1
e 105 141 1
e 105 168 1
e 106 107 1
e 106 108 1
e 106 109 1
e 106 135 1
e 106 141 1
e 106 188 1
e 107 108 1
e 107 109 1
e 107 110 1
e 107 265 1
e 107 114 1
e 108 109 1
e 108 110 1
e 108 111 1
e 108 187 1
e 108 213 1
e 109 110 1
e 109 111 1
e 109 112 1
e 109 280 1
e 109 206 1
e 110 111 1
e 110 112 1
e 110 113 1
e 110 122 1
e 110 138 1
e 110 217 1
e 110 290 1
e 111 112 1
e 111 113 1
e 111 114 1
e 111 190 1
e 111 197 1
e 112 113 1
e 112 114 1
e 112 115 1
e 112 211 1
e 112 232 1
e 113 114 1
e 113 115 1
e 113 116 1
e 114 115 1
e 114 116 1
e 114 117 1
e 114 280 1
e 114 160 1
e 115 116 1
e 115 117 1
e 115 118 1
e 115 235 1
e 115 279 1
e 116 117 1
e 116 118 1
e 116 119 1
e 116 159 1
e 117 118 1
e 117 119 1
e 117 120 1
e 117 129 1
e 117 250 1
e 117 247 1
e 117 142 1
e 117 265 1
e 117 272 1
e 118 119 1
e 118 120 1
e 118 121 1
e 118 246 1
e 118 279 1
e 118 248 1
e 119 120 1
e 119 121 1
e 119 122 1
e 119 253 1
e 119 290 1
e 120 121 1
e 120 122 1
e 120 123 1
e 120 195 1
e 120 141 1
e 120 229 1
e 120 147 1
e 121 122 1
e 121 123 1
e 121 124 1
e 121 231 1
e 121 297 1
e 122 123 1
e 122 124 1
e 122 125 1
e 122 152 1
e 122 131 1
e 123 124 1
e 123 125 1
e 123 126 1
e 124 125 1
e 124 126 1
e 124 127 1
e 124 273 1
e 124 209 1
e 124 238 1
e 125 126 1
e 125 127 1
e 125 128 1
e 125 268 1
e 125 233 1
e 126 127 1
e 126 128 1
e 126 129 1
e 126 297 1
e 126 140 1
e 126 294 1
e 127 128 1
e 127 129 1
e 127 130 1
e 127 159 1
e 127 194 1
e 128 129 1
e 128 130 1
e 128 131 1
e 128 273 1
e 128 269 1
e 129 130 1
e 129 131 1
e 129 132 1
e 129 154 1
e 129 141 1
e 129 245 1
e 130 131 1
e 130 132 1
e 130 133 1
e 130 258 1
e 131 132 1
e 131 133 1
e 131 134 1
e 131 277 1
e 131 195 1
e 131 257 1
e 132 133 1
e 132 134 1
e 132 135 1
e 132 176 1
e 132 174 1
e 132 246 1
e 133 134 1
e 133 135 1
e 133 136 1
e 133 177 1
e 134 135 1
e 134 136 1
e 134 137 1
e 134 165 1
e 134 179 1
e 134 246 1
e 135 136 1
e 135 137 1
e 135 138 1
e 135 300 1
e 135 155 1
e 135 181 1
e 136 137 1
e 136 138 1
e 136 139 1
e 136 240 1
e 137 138 1
e 137 139 1
e 137 140 1
e 137 189 1
e 137 245 1
e 138 139 1
e 138 140 1
e 138 141 1
e 138 190 1
e 138 202 1
e 139 140 1
e 139 141 1
e 139 142 1
e 139 232 1
e 140 141 1
e 140 142 1
e 140 143 1
e 140 210 1
e 141 142 1
e 141 143 1
e 141 144 1
e 141 248 1
e 142 143 1
e 142 144 1
e 142 145 1
e 143 144 1
e 143 145 1
e 143 146 1
e 143 283 1
e 143 275 1
e 143 281 1
e 143 290 1
e 144 145 1
e 144 146 1
e 144 147 1
e 145 146 1
e 145 147 1
e 145 148 1
e 145 205 1
e 145 169 1
e 145 170 1
e 146 147 1
e 146 148 1
e 146 149 1
e 147 148 1
e 147 149 1
e 147 150 1
e 147 282 1
e 147 291 1
e 148 149 1
e 148 150 1
e 148 151 1
e 148 200 1
e 148 226 1
e 149 150 1
e 149 151 1
e 149 152 1
e 149 289 1
e 150 151 1
e 150 152 1
e 150 153 1
e 150 244 1
e 150 207 1
e 150 283 1
e 151 152 1
e 151 153 1
e 151 154 1
e 151 182 1
e 151 262 1
e 152 153 1
e 152 154 1
e 152 155 1
e 152 238 1
e 152 182 1
e 153 154 1
e 153 155 1
e 153 156 1
e 153 262 1
e 153 193 1
e 153 272 1
e 154 155 1
e 154 156 1
e 154 157 1
e 154 258 1
e 154 230 1
e 154 243 1
e 155 156 1
e 155 157 1
e 155 158 1
e 155 216 1
e 156 157 1
e 156 158 1
e 156 159 1
e 156 202 1
e 157 158 1
e 157 159 1
e 157 160 1
e 157 165 1
e 158 159 1
e 158 160 1
e 158 161 1
e 159 160 1
e 159 161 1
e 159 162 1
e 160 161 1
e 160 162 1
e 160 163 1
e 160 228 1
e 160 257 1
e 161 162 1
e 161 163 1
e 161 164 1
e 161 217 1
e 161 264 1
e 162 163 1
e 162 164 1
e 162 165 1
e 163 164 1
e 163 165 1
e 163 166 1
e 163 208 1
e 163 240 1
e 164 165 1
e 164 166 1
e 164 167 1
e 164 204 1
e 165 166 1
e 165 167 1
e 165 168 1
e 165 222 1
e 165 260 1
e 166 167 1
e 166 168 1
e 166 169 1
e 167 168 1
e 167 169 1
e 167 170 1
e 167 226 1
e 167 221 1
e 168 169 1
e 168 170 1
e 168 171 1
e 169 170 1
e 169 171 1
e 169 172 1
e 169 202 1
e 170 171 1
e 170 172 1
e 170 173 1
e 170 177 1
e 170 238 1
e 171 172 1
e 171 173 1
e 171 174 1
e 171 235 1
e 171 274 1
e 172 173 1
e 172 174 1
e 172 175 1
e 172 205 1
e 173 174 1
e 173 175 1
e 173 176 1
e 173 185 1
e 173 293 1
e 174 175 1
e 174 176 1
e 174 177 1
e 174 283 1
e 174 247 1
e 175 176 1
e 175 177 1
e 175 178 1
e 175 281 1
e 176 177 1
e 176 178 1
e 176 179 1
e 176 254 1
e 176 282 1
e 177 178 1
e 177 179 1
e 177 180 1
e 177 266 1
e 177 253 1
e 177 219 1
e 177 247 1
e 178 179 1
e 178 180 1
e 178 181 1
e 178 192 1
e 178 236 1
e 179 180 1
e 179 181 1
e 179 182 1
e 179 220 1
e 179 263 1
e 180 181 1
e 180 182 1
e 180 183 1
e 180 220 1
e 180 199 1
e 181 182 1
e 181 183 1
e 181 184 1
e 181 191 1
e 181 215 1
e 182 183 1
e 182 184 1
e 182 185 1
e 183 184 1
e 183 185 1
e 183 186 1
e 183 279 1
e 184 185 1
e 184 186 1
e 184 187 1
e 184 225 1
e 184 211 1
e 185 186 1
e 185 187 1
e 185 188 1
e 185 297 1
e 185 237 1
e 185 270 1
e 186 187 1
e 186 188 1
e 186 189 1
e 186 197 1
e 187 188 1
e 187 189 1
e 187 190 1
e 187 195 1
e 188 189 1
e 188 190 1
e 188 191 1
e 188 251 1
e 189 190 1
e 189 191 1
e 189 192 1
e 190 191 1
e 190 192 1
e 190 193 1
e 190 214 1
e 191 192 1
e 191 193 1
e 191 194 1
e 191 281 1
e 192 193 1
e 192 194 1
e 192 195 1
e 192 291 1
e 193 194 1
e 193 195 1
e 193 196 1
e 194 195 1
e 194 196 1
e 194 197 1
e 194 243 1
e 194 223 1
e 194 271 1
e 195 196 1
e 195 197 1
e 195 198 1
e 195 247 1
e 195 258 1
e 196 197 1
e 196 198 1
e 196 199 1
e 196 245 1
e 196 267 1
e 197 198 1
e 197 199 1
e 197 200 1
e 197 289 1
e 197 290 1
e 197 231 1
e 198 199 1
e 198 200 1
e 198 201 1
e 198 203 1
e 198 206 1
e 199 200 1
e 199 201 1
e 199 202 1
e 200 201 1
e 200 202 1
e 200 203 1
e 200 212 1
e 201 202 1
e 201 203 1
e 201 204 1
e 202 203 1
e 202 204 1
e 202 205 1
e 202 225 1
e 202 266 1
e 203 204 1
e 203 205 1
e 203 206 1
e 203 212 1
e 203 297 1
e 204 205 1
e 204 206 1
e 204 207 1
e 205 206 1
e 205 207 1
e 205 208 1
e 205 289 1
e 206 207 1
e 206 208 1
e 206 209 1
e 206 225 1
e 207 208 1
e 207 209 1
e 207 210 1
e 207 254 1
e 207 258 1
e 208 209 1
e 208 210 1
e 208 211 1
e 208 259 1
e 208 267 1
e 208 272 1
e 209 210 1
e 209 211 1
e 209 212 1
e 209 292 1
e 209 222 1
e 210 211 1
e 210 212 1
e 210 213 1
e 210 232 1
e 210 289 1
e 211 212 1
e 211 213 1
e 211 214 1
e 212 213 1
e 212 214 1
e 212 215 1
e 213 214 1
e 213 215 1
e 213 216 1
e 213 294 1
e 214 215 1
e 214 216 1
e 214 217 1
e 214 238 1
e 215 216 1
e 215 217 1
e 215 218 1
e 216 217 1
e 216 218 1
e 216 219 1
e 216 247 1
e 217 218 1
e 217 219 1
e 217 220 1
e 218 219 1
e 218 220 1
e 218 221 1
e 219 220 1
e 219 221 1
e 219 222 1
e 219 280 1
e 220 221 1
e 220 222 1
e 220 223 1
e 221 222 1
e 221 223 1
e 221 224 1
e 221 233 1
e 222 223 1
e 222 224 1
e 222 225 1
e 222 243 1
e 223 224 1
e 223 225 1
e 223 226 1
e 224 225 1
e 224 226 1
e 224 227 1
e 225 226 1
e 225 227 1
e 225 228 1
e 226 227 1
e 226 228 1
e 226 229 1
e 226 287 1
e 226 237 1
e 226 249 1
e 227 228 1
e 227 229 1
e 227 230 1
e 227 240 1
e 227 296 1
e 227 241 1
e 227 254 1
e 227 256 1
e 228 229 1
e 228 230 1
e 228 231 1
e 229 230 1
e 229 231 1
e 229 232 1
e 229 297 1
e 229 274 1
e 230 231 1
e 230 232 1
e 230 233 1
e 231 232 1
e 231 233 1
e 231 234 1
e 232 233 1
e 232 234 1
e 232 235 1
e 233 234 1
e 233 235 1
e 233 236 1
e 233 256 1
e 233 255 1
e 233 285 1
e 234 235 1
e 234 236 1
e 234 237 1
e 235 236 1
e 235 237 1
e 235 238 1
e 235 257 1
e 235 294 1
e 236 237 1
e 236 238 1
e 236 239 1
e 237 238 1
e 237 239 1
e 237 240 1
e 238 239 1
e 238 240 1
e 238 241 1
e 238 259 1
e 239 240 1
e 239 241 1
e 239 242 1
e 239 265 1
e 240 241 1
e 240 242 1
e 240 243 1
e 241 242 1
e 241 243 1
e 241 244 1
e 241 255 1
e 241 265 1
e 242 243 1
e 242 244 1
e 242 245 1
e 243 244 1
e 243 245 1
e 243 246 1
e 244 245 1
e 244 246 1
e 244 247 1
e 244 294 1
e 245 246 1
e 245 247 1
e 245 248 1
e 246 247 1
e 246 248 1
e 246 249 1
e 246 278 1
e 247 248 1
e 247 249 1
e 247 250 1
e 247 291 1
e 248 249 1
e 248 250 1
e 248 251 1
e 248 285 1
e 249 250 1
e 249 251 1
e 249 252 1
e 249 274 1
e 250 251 1
e 250 252 1
e 250 253 1
e 250 259 1
e 251 252 1
e 251 253 1
e 251 254 1
e 252 253 1
e 252 254 1
e 252 255 1
e 252 263 1
e 253 254 1
e 253 255 1
e 253 256 1
e 254 255 1
e 254 256 1
e 254 257 1
e 255 256 1
e 255 257 1
e 255 258 1
e 255 282 1
e 256 257 1
e 256 258 1
e 256 259 1
e 256 295 1
e 256 262 1
e 257 258 1
e 257 259 1
e 257 260 1
e 258 259 1
e 258 260 1
e 258 261 1
e 259 260 1
e 259 261 1
e 259 262 1
e 259 280 1
e 260 261 1
e 260 262 1
e 260 263 1
e 261 262 1
e 261 263 1
e 261 264 1
e 261 284 1
e 261 293 1
e 262 263 1
e 262 264 1
e 262 265 1
e 263 264 1
e 263 265 1
e 263 266 1
e 264 265 1
e 264 266 1
e 264 267 1
e 265 266 1
e 265 267 1
e 265 268 1
e 266 267 1
e 266 268 1
e 266 269 1
e 267 268 1
e 267 269 1
e 267 270 1
e 268 269 1
e 268 270 1
e 268 271 1
e 269 270 1
e 269 271 1
e 269 272 1
e 269 300 1
e 270 271 1
e 270 272 1
e 270 273 1
e 271 272 1
e 271 273 1
e 271 274 1
e 272 273 1
e 272 274 1
e 272 275 1
e 272 284 1
e 272 286 1
e 273 274 1
e 273 275 1
e 273 276 1
e 273 278 1
e 273 296 1
e 274 275 1
e 274 276 1
e 274 277 1
e 275 276 1
e 275 277 1
e 275 278 1
e 275 281 1
e 275 295 1
e 276 277 1
e 276 278 1
e 276 279 1
e 277 278 1
e 277 279 1
e 277 280 1
e 277 298 1
e 278 279 1
e 278 280 1
e 278 281 1
e 279 280 1
e 279 281 1
e 279 282 1
e 280 281 1
e 280 282 1
e 280 283 1
e 281 282 1
e 281 283 1
e 281 284 1
e 282 283 1
e 282 284 1
e 282 285 1
e 283 284 1
e 283 285 1
e 283 286 1
e 284 285 1
e 284 286 1
e 284 287 1
e 284 296 1
e 285 286 1
e 285 287 1
e 285 288 1
e 286 287 1
e 286 288 1
e 286 289 1
e 287 288 1
e 287 289 1
e 287 290 1
e 288 289 1
e 288 290 1
e 288 291 1
e 289 290 1
e 289 291 1
e 289 292 1
e 290 291 1
e 290 292 1
e 290 293 1
e 291 292 1
e 291 293 1
e 291 294 1
e 292 293 1
e 292 294 1
e 292 295 1
e 293 294 1
e 293 295 1
e 293 296 1
e 294 295 1
e 294 296 1
e 294 297 1
e 295 296 1
e 295 297 1
e 295 298 1
e 296 297 1
e 296 298 1
e 296 299 1
e 297 298 1
e 297 299 1
e 297 300 1
e 298 299 1
e 298 300 1
e 299 300 1